**
** Heading +++++++++++++++++++++++++++++++++++++++++++++++++
**
*Heading
Hash: IwuhBYBO, Date: 04/29/2025, Unit system: MM_TON_S_C
**
** Nodes +++++++++++++++++++++++++++++++++++++++++++++++++++
**
*Node, NSET=Nall
1, 0.00000000E+000, 0.00000000E+000
2, 5.00000000E+000, 0.00000000E+000
3, 1.00000000E+001, 0.00000000E+000
4, 1.50000000E+001, 0.00000000E+000
5, 2.00000000E+001, 0.00000000E+000
6, 2.50000000E+001, 0.00000000E+000
7, 3.00000000E+001, 0.00000000E+000
8, 3.50000000E+001, 0.00000000E+000
9, 4.00000000E+001, 0.00000000E+000
10, 4.50000000E+001, 0.00000000E+000
11, 5.00000000E+001, 0.00000000E+000
12, 5.50000000E+001, 0.00000000E+000
13, 6.00000000E+001, 0.00000000E+000
14, 6.50000000E+001, 0.00000000E+000
15, 7.00000000E+001, 0.00000000E+000
16, 7.50000000E+001, 0.00000000E+000
17, 8.00000000E+001, 0.00000000E+000
18, 8.50000000E+001, 0.00000000E+000
19, 9.00000000E+001, 0.00000000E+000
20, 9.50000000E+001, 0.00000000E+000
21, 1.00000000E+002, 0.00000000E+000
22, 1.05000000E+002, 0.00000000E+000
23, 1.10000000E+002, 0.00000000E+000
24, 1.15000000E+002, 0.00000000E+000
25, 1.20000000E+002, 0.00000000E+000
26, 1.25000000E+002, 0.00000000E+000
27, 1.30000000E+002, 0.00000000E+000
28, 1.35000000E+002, 0.00000000E+000
29, 1.40000000E+002, 0.00000000E+000
30, 1.45000000E+002, 0.00000000E+000
31, 1.50000000E+002, 0.00000000E+000
32, 1.55000000E+002, 0.00000000E+000
33, 1.60000000E+002, 0.00000000E+000
34, 1.65000000E+002, 0.00000000E+000
35, 1.70000000E+002, 0.00000000E+000
36, 1.75000000E+002, 0.00000000E+000
37, 1.80000000E+002, 0.00000000E+000
38, 1.85000000E+002, 0.00000000E+000
39, 1.90000000E+002, 0.00000000E+000
40, 1.95000000E+002, 0.00000000E+000
41, 2.00000000E+002, 0.00000000E+000
42, 0.00000000E+000, 5.00000000E+000
43, 5.00000000E+000, 5.00000000E+000
44, 1.00000000E+001, 5.00000000E+000
45, 1.50000000E+001, 5.00000000E+000
46, 2.00000000E+001, 5.00000000E+000
47, 2.50000000E+001, 5.00000000E+000
48, 3.00000000E+001, 5.00000000E+000
49, 3.50000000E+001, 5.00000000E+000
50, 4.00000000E+001, 5.00000000E+000
51, 4.50000000E+001, 5.00000000E+000
52, 5.00000000E+001, 5.00000000E+000
53, 5.50000000E+001, 5.00000000E+000
54, 6.00000000E+001, 5.00000000E+000
55, 6.50000000E+001, 5.00000000E+000
56, 7.00000000E+001, 5.00000000E+000
57, 7.50000000E+001, 5.00000000E+000
58, 8.00000000E+001, 5.00000000E+000
59, 8.50000000E+001, 5.00000000E+000
60, 9.00000000E+001, 5.00000000E+000
61, 9.50000000E+001, 5.00000000E+000
62, 1.00000000E+002, 5.00000000E+000
63, 1.05000000E+002, 5.00000000E+000
64, 1.10000000E+002, 5.00000000E+000
65, 1.15000000E+002, 5.00000000E+000
66, 1.20000000E+002, 5.00000000E+000
67, 1.25000000E+002, 5.00000000E+000
68, 1.30000000E+002, 5.00000000E+000
69, 1.35000000E+002, 5.00000000E+000
70, 1.40000000E+002, 5.00000000E+000
71, 1.45000000E+002, 5.00000000E+000
72, 1.50000000E+002, 5.00000000E+000
73, 1.55000000E+002, 5.00000000E+000
74, 1.60000000E+002, 5.00000000E+000
75, 1.65000000E+002, 5.00000000E+000
76, 1.70000000E+002, 5.00000000E+000
77, 1.75000000E+002, 5.00000000E+000
78, 1.80000000E+002, 5.00000000E+000
79, 1.85000000E+002, 5.00000000E+000
80, 1.90000000E+002, 5.00000000E+000
81, 1.95000000E+002, 5.00000000E+000
82, 2.00000000E+002, 5.00000000E+000
83, 0.00000000E+000, 1.00000000E+001
84, 5.00000000E+000, 1.00000000E+001
85, 1.00000000E+001, 1.00000000E+001
86, 1.50000000E+001, 1.00000000E+001
87, 2.00000000E+001, 1.00000000E+001
88, 2.50000000E+001, 1.00000000E+001
89, 3.00000000E+001, 1.00000000E+001
90, 3.50000000E+001, 1.00000000E+001
91, 4.00000000E+001, 1.00000000E+001
92, 4.50000000E+001, 1.00000000E+001
93, 5.00000000E+001, 1.00000000E+001
94, 5.50000000E+001, 1.00000000E+001
95, 6.00000000E+001, 1.00000000E+001
96, 6.50000000E+001, 1.00000000E+001
97, 7.00000000E+001, 1.00000000E+001
98, 7.50000000E+001, 1.00000000E+001
99, 8.00000000E+001, 1.00000000E+001
100, 8.50000000E+001, 1.00000000E+001
101, 9.00000000E+001, 1.00000000E+001
102, 9.50000000E+001, 1.00000000E+001
103, 1.00000000E+002, 1.00000000E+001
104, 1.05000000E+002, 1.00000000E+001
105, 1.10000000E+002, 1.00000000E+001
106, 1.15000000E+002, 1.00000000E+001
107, 1.20000000E+002, 1.00000000E+001
108, 1.25000000E+002, 1.00000000E+001
109, 1.30000000E+002, 1.00000000E+001
110, 1.35000000E+002, 1.00000000E+001
111, 1.40000000E+002, 1.00000000E+001
112, 1.45000000E+002, 1.00000000E+001
113, 1.50000000E+002, 1.00000000E+001
114, 1.55000000E+002, 1.00000000E+001
115, 1.60000000E+002, 1.00000000E+001
116, 1.65000000E+002, 1.00000000E+001
117, 1.70000000E+002, 1.00000000E+001
118, 1.75000000E+002, 1.00000000E+001
119, 1.80000000E+002, 1.00000000E+001
120, 1.85000000E+002, 1.00000000E+001
121, 1.90000000E+002, 1.00000000E+001
122, 1.95000000E+002, 1.00000000E+001
123, 2.00000000E+002, 1.00000000E+001
124, 0.00000000E+000, 1.50000000E+001
125, 5.00000000E+000, 1.50000000E+001
126, 1.00000000E+001, 1.50000000E+001
127, 1.50000000E+001, 1.50000000E+001
128, 2.00000000E+001, 1.50000000E+001
129, 2.50000000E+001, 1.50000000E+001
130, 3.00000000E+001, 1.50000000E+001
131, 3.50000000E+001, 1.50000000E+001
132, 4.00000000E+001, 1.50000000E+001
133, 4.50000000E+001, 1.50000000E+001
134, 5.00000000E+001, 1.50000000E+001
135, 5.50000000E+001, 1.50000000E+001
136, 6.00000000E+001, 1.50000000E+001
137, 6.50000000E+001, 1.50000000E+001
138, 7.00000000E+001, 1.50000000E+001
139, 7.50000000E+001, 1.50000000E+001
140, 8.00000000E+001, 1.50000000E+001
141, 8.50000000E+001, 1.50000000E+001
142, 9.00000000E+001, 1.50000000E+001
143, 9.50000000E+001, 1.50000000E+001
144, 1.00000000E+002, 1.50000000E+001
145, 1.05000000E+002, 1.50000000E+001
146, 1.10000000E+002, 1.50000000E+001
147, 1.15000000E+002, 1.50000000E+001
148, 1.20000000E+002, 1.50000000E+001
149, 1.25000000E+002, 1.50000000E+001
150, 1.30000000E+002, 1.50000000E+001
151, 1.35000000E+002, 1.50000000E+001
152, 1.40000000E+002, 1.50000000E+001
153, 1.45000000E+002, 1.50000000E+001
154, 1.50000000E+002, 1.50000000E+001
155, 1.55000000E+002, 1.50000000E+001
156, 1.60000000E+002, 1.50000000E+001
157, 1.65000000E+002, 1.50000000E+001
158, 1.70000000E+002, 1.50000000E+001
159, 1.75000000E+002, 1.50000000E+001
160, 1.80000000E+002, 1.50000000E+001
161, 1.85000000E+002, 1.50000000E+001
162, 1.90000000E+002, 1.50000000E+001
163, 1.95000000E+002, 1.50000000E+001
164, 2.00000000E+002, 1.50000000E+001
165, 0.00000000E+000, 2.00000000E+001
166, 5.00000000E+000, 2.00000000E+001
167, 1.00000000E+001, 2.00000000E+001
168, 1.50000000E+001, 2.00000000E+001
169, 2.00000000E+001, 2.00000000E+001
170, 2.50000000E+001, 2.00000000E+001
171, 3.00000000E+001, 2.00000000E+001
172, 3.50000000E+001, 2.00000000E+001
173, 4.00000000E+001, 2.00000000E+001
174, 4.50000000E+001, 2.00000000E+001
175, 5.00000000E+001, 2.00000000E+001
176, 5.50000000E+001, 2.00000000E+001
177, 6.00000000E+001, 2.00000000E+001
178, 6.50000000E+001, 2.00000000E+001
179, 7.00000000E+001, 2.00000000E+001
180, 7.50000000E+001, 2.00000000E+001
181, 8.00000000E+001, 2.00000000E+001
182, 8.50000000E+001, 2.00000000E+001
183, 9.00000000E+001, 2.00000000E+001
184, 9.50000000E+001, 2.00000000E+001
185, 1.00000000E+002, 2.00000000E+001
186, 1.05000000E+002, 2.00000000E+001
187, 1.10000000E+002, 2.00000000E+001
188, 1.15000000E+002, 2.00000000E+001
189, 1.20000000E+002, 2.00000000E+001
190, 1.25000000E+002, 2.00000000E+001
191, 1.30000000E+002, 2.00000000E+001
192, 1.35000000E+002, 2.00000000E+001
193, 1.40000000E+002, 2.00000000E+001
194, 1.45000000E+002, 2.00000000E+001
195, 1.50000000E+002, 2.00000000E+001
196, 1.55000000E+002, 2.00000000E+001
197, 1.60000000E+002, 2.00000000E+001
198, 1.65000000E+002, 2.00000000E+001
199, 1.70000000E+002, 2.00000000E+001
200, 1.75000000E+002, 2.00000000E+001
201, 1.80000000E+002, 2.00000000E+001
202, 1.85000000E+002, 2.00000000E+001
203, 1.90000000E+002, 2.00000000E+001
204, 1.95000000E+002, 2.00000000E+001
205, 2.00000000E+002, 2.00000000E+001
206, 0.00000000E+000, 2.50000000E+001
207, 5.00000000E+000, 2.50000000E+001
208, 1.00000000E+001, 2.50000000E+001
209, 1.50000000E+001, 2.50000000E+001
210, 2.00000000E+001, 2.50000000E+001
211, 2.50000000E+001, 2.50000000E+001
212, 3.00000000E+001, 2.50000000E+001
213, 3.50000000E+001, 2.50000000E+001
214, 4.00000000E+001, 2.50000000E+001
215, 4.50000000E+001, 2.50000000E+001
216, 5.00000000E+001, 2.50000000E+001
217, 5.50000000E+001, 2.50000000E+001
218, 6.00000000E+001, 2.50000000E+001
219, 6.50000000E+001, 2.50000000E+001
220, 7.00000000E+001, 2.50000000E+001
221, 7.50000000E+001, 2.50000000E+001
222, 8.00000000E+001, 2.50000000E+001
223, 8.50000000E+001, 2.50000000E+001
224, 9.00000000E+001, 2.50000000E+001
225, 9.50000000E+001, 2.50000000E+001
226, 1.00000000E+002, 2.50000000E+001
227, 1.05000000E+002, 2.50000000E+001
228, 1.10000000E+002, 2.50000000E+001
229, 1.15000000E+002, 2.50000000E+001
230, 1.20000000E+002, 2.50000000E+001
231, 1.25000000E+002, 2.50000000E+001
232, 1.30000000E+002, 2.50000000E+001
233, 1.35000000E+002, 2.50000000E+001
234, 1.40000000E+002, 2.50000000E+001
235, 1.45000000E+002, 2.50000000E+001
236, 1.50000000E+002, 2.50000000E+001
237, 1.55000000E+002, 2.50000000E+001
238, 1.60000000E+002, 2.50000000E+001
239, 1.65000000E+002, 2.50000000E+001
240, 1.70000000E+002, 2.50000000E+001
241, 1.75000000E+002, 2.50000000E+001
242, 1.80000000E+002, 2.50000000E+001
243, 1.85000000E+002, 2.50000000E+001
244, 1.90000000E+002, 2.50000000E+001
245, 1.95000000E+002, 2.50000000E+001
246, 2.00000000E+002, 2.50000000E+001
247, 0.00000000E+000, 3.00000000E+001
248, 5.00000000E+000, 3.00000000E+001
249, 1.00000000E+001, 3.00000000E+001
250, 1.50000000E+001, 3.00000000E+001
251, 2.00000000E+001, 3.00000000E+001
252, 2.50000000E+001, 3.00000000E+001
253, 3.00000000E+001, 3.00000000E+001
254, 3.50000000E+001, 3.00000000E+001
255, 4.00000000E+001, 3.00000000E+001
256, 4.50000000E+001, 3.00000000E+001
257, 5.00000000E+001, 3.00000000E+001
258, 5.50000000E+001, 3.00000000E+001
259, 6.00000000E+001, 3.00000000E+001
260, 6.50000000E+001, 3.00000000E+001
261, 7.00000000E+001, 3.00000000E+001
262, 7.50000000E+001, 3.00000000E+001
263, 8.00000000E+001, 3.00000000E+001
264, 8.50000000E+001, 3.00000000E+001
265, 9.00000000E+001, 3.00000000E+001
266, 9.50000000E+001, 3.00000000E+001
267, 1.00000000E+002, 3.00000000E+001
268, 1.05000000E+002, 3.00000000E+001
269, 1.10000000E+002, 3.00000000E+001
270, 1.15000000E+002, 3.00000000E+001
271, 1.20000000E+002, 3.00000000E+001
272, 1.25000000E+002, 3.00000000E+001
273, 1.30000000E+002, 3.00000000E+001
274, 1.35000000E+002, 3.00000000E+001
275, 1.40000000E+002, 3.00000000E+001
276, 1.45000000E+002, 3.00000000E+001
277, 1.50000000E+002, 3.00000000E+001
278, 1.55000000E+002, 3.00000000E+001
279, 1.60000000E+002, 3.00000000E+001
280, 1.65000000E+002, 3.00000000E+001
281, 1.70000000E+002, 3.00000000E+001
282, 1.75000000E+002, 3.00000000E+001
283, 1.80000000E+002, 3.00000000E+001
284, 1.85000000E+002, 3.00000000E+001
285, 1.90000000E+002, 3.00000000E+001
286, 1.95000000E+002, 3.00000000E+001
287, 2.00000000E+002, 3.00000000E+001
288, 0.00000000E+000, 3.50000000E+001
289, 5.00000000E+000, 3.50000000E+001
290, 1.00000000E+001, 3.50000000E+001
291, 1.50000000E+001, 3.50000000E+001
292, 2.00000000E+001, 3.50000000E+001
293, 2.50000000E+001, 3.50000000E+001
294, 3.00000000E+001, 3.50000000E+001
295, 3.50000000E+001, 3.50000000E+001
296, 4.00000000E+001, 3.50000000E+001
297, 4.50000000E+001, 3.50000000E+001
298, 5.00000000E+001, 3.50000000E+001
299, 5.50000000E+001, 3.50000000E+001
300, 6.00000000E+001, 3.50000000E+001
301, 6.50000000E+001, 3.50000000E+001
302, 7.00000000E+001, 3.50000000E+001
303, 7.50000000E+001, 3.50000000E+001
304, 8.00000000E+001, 3.50000000E+001
305, 8.50000000E+001, 3.50000000E+001
306, 9.00000000E+001, 3.50000000E+001
307, 9.50000000E+001, 3.50000000E+001
308, 1.00000000E+002, 3.50000000E+001
309, 1.05000000E+002, 3.50000000E+001
310, 1.10000000E+002, 3.50000000E+001
311, 1.15000000E+002, 3.50000000E+001
312, 1.20000000E+002, 3.50000000E+001
313, 1.25000000E+002, 3.50000000E+001
314, 1.30000000E+002, 3.50000000E+001
315, 1.35000000E+002, 3.50000000E+001
316, 1.40000000E+002, 3.50000000E+001
317, 1.45000000E+002, 3.50000000E+001
318, 1.50000000E+002, 3.50000000E+001
319, 1.55000000E+002, 3.50000000E+001
320, 1.60000000E+002, 3.50000000E+001
321, 1.65000000E+002, 3.50000000E+001
322, 1.70000000E+002, 3.50000000E+001
323, 1.75000000E+002, 3.50000000E+001
324, 1.80000000E+002, 3.50000000E+001
325, 1.85000000E+002, 3.50000000E+001
326, 1.90000000E+002, 3.50000000E+001
327, 1.95000000E+002, 3.50000000E+001
328, 2.00000000E+002, 3.50000000E+001
329, 0.00000000E+000, 4.00000000E+001
330, 5.00000000E+000, 4.00000000E+001
331, 1.00000000E+001, 4.00000000E+001
332, 1.50000000E+001, 4.00000000E+001
333, 2.00000000E+001, 4.00000000E+001
334, 2.50000000E+001, 4.00000000E+001
335, 3.00000000E+001, 4.00000000E+001
336, 3.50000000E+001, 4.00000000E+001
337, 4.00000000E+001, 4.00000000E+001
338, 4.50000000E+001, 4.00000000E+001
339, 5.00000000E+001, 4.00000000E+001
340, 5.50000000E+001, 4.00000000E+001
341, 6.00000000E+001, 4.00000000E+001
342, 6.50000000E+001, 4.00000000E+001
343, 7.00000000E+001, 4.00000000E+001
344, 7.50000000E+001, 4.00000000E+001
345, 8.00000000E+001, 4.00000000E+001
346, 8.50000000E+001, 4.00000000E+001
347, 9.00000000E+001, 4.00000000E+001
348, 9.50000000E+001, 4.00000000E+001
349, 1.00000000E+002, 4.00000000E+001
350, 1.05000000E+002, 4.00000000E+001
351, 1.10000000E+002, 4.00000000E+001
352, 1.15000000E+002, 4.00000000E+001
353, 1.20000000E+002, 4.00000000E+001
354, 1.25000000E+002, 4.00000000E+001
355, 1.30000000E+002, 4.00000000E+001
356, 1.35000000E+002, 4.00000000E+001
357, 1.40000000E+002, 4.00000000E+001
358, 1.45000000E+002, 4.00000000E+001
359, 1.50000000E+002, 4.00000000E+001
360, 1.55000000E+002, 4.00000000E+001
361, 1.60000000E+002, 4.00000000E+001
362, 1.65000000E+002, 4.00000000E+001
363, 1.70000000E+002, 4.00000000E+001
364, 1.75000000E+002, 4.00000000E+001
365, 1.80000000E+002, 4.00000000E+001
366, 1.85000000E+002, 4.00000000E+001
367, 1.90000000E+002, 4.00000000E+001
368, 1.95000000E+002, 4.00000000E+001
369, 2.00000000E+002, 4.00000000E+001
370, 0.00000000E+000, 4.50000000E+001
371, 5.00000000E+000, 4.50000000E+001
372, 1.00000000E+001, 4.50000000E+001
373, 1.50000000E+001, 4.50000000E+001
374, 2.00000000E+001, 4.50000000E+001
375, 2.50000000E+001, 4.50000000E+001
376, 3.00000000E+001, 4.50000000E+001
377, 3.50000000E+001, 4.50000000E+001
378, 4.00000000E+001, 4.50000000E+001
379, 4.50000000E+001, 4.50000000E+001
380, 5.00000000E+001, 4.50000000E+001
381, 5.50000000E+001, 4.50000000E+001
382, 6.00000000E+001, 4.50000000E+001
383, 6.50000000E+001, 4.50000000E+001
384, 7.00000000E+001, 4.50000000E+001
385, 7.50000000E+001, 4.50000000E+001
386, 8.00000000E+001, 4.50000000E+001
387, 8.50000000E+001, 4.50000000E+001
388, 9.00000000E+001, 4.50000000E+001
389, 9.50000000E+001, 4.50000000E+001
390, 1.00000000E+002, 4.50000000E+001
391, 1.05000000E+002, 4.50000000E+001
392, 1.10000000E+002, 4.50000000E+001
393, 1.15000000E+002, 4.50000000E+001
394, 1.20000000E+002, 4.50000000E+001
395, 1.25000000E+002, 4.50000000E+001
396, 1.30000000E+002, 4.50000000E+001
397, 1.35000000E+002, 4.50000000E+001
398, 1.40000000E+002, 4.50000000E+001
399, 1.45000000E+002, 4.50000000E+001
400, 1.50000000E+002, 4.50000000E+001
401, 1.55000000E+002, 4.50000000E+001
402, 1.60000000E+002, 4.50000000E+001
403, 1.65000000E+002, 4.50000000E+001
404, 1.70000000E+002, 4.50000000E+001
405, 1.75000000E+002, 4.50000000E+001
406, 1.80000000E+002, 4.50000000E+001
407, 1.85000000E+002, 4.50000000E+001
408, 1.90000000E+002, 4.50000000E+001
409, 1.95000000E+002, 4.50000000E+001
410, 2.00000000E+002, 4.50000000E+001
411, 0.00000000E+000, 5.00000000E+001
412, 5.00000000E+000, 5.00000000E+001
413, 1.00000000E+001, 5.00000000E+001
414, 1.50000000E+001, 5.00000000E+001
415, 2.00000000E+001, 5.00000000E+001
416, 2.50000000E+001, 5.00000000E+001
417, 3.00000000E+001, 5.00000000E+001
418, 3.50000000E+001, 5.00000000E+001
419, 4.00000000E+001, 5.00000000E+001
420, 4.50000000E+001, 5.00000000E+001
421, 5.00000000E+001, 5.00000000E+001
422, 5.50000000E+001, 5.00000000E+001
423, 6.00000000E+001, 5.00000000E+001
424, 6.50000000E+001, 5.00000000E+001
425, 7.00000000E+001, 5.00000000E+001
426, 7.50000000E+001, 5.00000000E+001
427, 8.00000000E+001, 5.00000000E+001
428, 8.50000000E+001, 5.00000000E+001
429, 9.00000000E+001, 5.00000000E+001
430, 9.50000000E+001, 5.00000000E+001
431, 1.00000000E+002, 5.00000000E+001
432, 1.05000000E+002, 5.00000000E+001
433, 1.10000000E+002, 5.00000000E+001
434, 1.15000000E+002, 5.00000000E+001
435, 1.20000000E+002, 5.00000000E+001
436, 1.25000000E+002, 5.00000000E+001
437, 1.30000000E+002, 5.00000000E+001
438, 1.35000000E+002, 5.00000000E+001
439, 1.40000000E+002, 5.00000000E+001
440, 1.45000000E+002, 5.00000000E+001
441, 1.50000000E+002, 5.00000000E+001
442, 1.55000000E+002, 5.00000000E+001
443, 1.60000000E+002, 5.00000000E+001
444, 1.65000000E+002, 5.00000000E+001
445, 1.70000000E+002, 5.00000000E+001
446, 1.75000000E+002, 5.00000000E+001
447, 1.80000000E+002, 5.00000000E+001
448, 1.85000000E+002, 5.00000000E+001
449, 1.90000000E+002, 5.00000000E+001
450, 1.95000000E+002, 5.00000000E+001
451, 2.00000000E+002, 5.00000000E+001
**
** Elements ++++++++++++++++++++++++++++++++++++++++++++++++
**
*Element, Type=CPS4, Elset=Shell_part-1
1, 1, 2, 43, 42
2, 2, 3, 44, 43
3, 3, 4, 45, 44
4, 4, 5, 46, 45
5, 5, 6, 47, 46
6, 6, 7, 48, 47
7, 7, 8, 49, 48
8, 8, 9, 50, 49
9, 9, 10, 51, 50
10, 10, 11, 52, 51
11, 11, 12, 53, 52
12, 12, 13, 54, 53
13, 13, 14, 55, 54
14, 14, 15, 56, 55
15, 15, 16, 57, 56
16, 16, 17, 58, 57
17, 17, 18, 59, 58
18, 18, 19, 60, 59
19, 19, 20, 61, 60
20, 20, 21, 62, 61
21, 21, 22, 63, 62
22, 22, 23, 64, 63
23, 23, 24, 65, 64
24, 24, 25, 66, 65
25, 25, 26, 67, 66
26, 26, 27, 68, 67
27, 27, 28, 69, 68
28, 28, 29, 70, 69
29, 29, 30, 71, 70
30, 30, 31, 72, 71
31, 31, 32, 73, 72
32, 32, 33, 74, 73
33, 33, 34, 75, 74
34, 34, 35, 76, 75
35, 35, 36, 77, 76
36, 36, 37, 78, 77
37, 37, 38, 79, 78
38, 38, 39, 80, 79
39, 39, 40, 81, 80
40, 40, 41, 82, 81
41, 42, 43, 84, 83
42, 43, 44, 85, 84
43, 44, 45, 86, 85
44, 45, 46, 87, 86
45, 46, 47, 88, 87
46, 47, 48, 89, 88
47, 48, 49, 90, 89
48, 49, 50, 91, 90
49, 50, 51, 92, 91
50, 51, 52, 93, 92
51, 52, 53, 94, 93
52, 53, 54, 95, 94
53, 54, 55, 96, 95
54, 55, 56, 97, 96
55, 56, 57, 98, 97
56, 57, 58, 99, 98
57, 58, 59, 100, 99
58, 59, 60, 101, 100
59, 60, 61, 102, 101
60, 61, 62, 103, 102
61, 62, 63, 104, 103
62, 63, 64, 105, 104
63, 64, 65, 106, 105
64, 65, 66, 107, 106
65, 66, 67, 108, 107
66, 67, 68, 109, 108
67, 68, 69, 110, 109
68, 69, 70, 111, 110
69, 70, 71, 112, 111
70, 71, 72, 113, 112
71, 72, 73, 114, 113
72, 73, 74, 115, 114
73, 74, 75, 116, 115
74, 75, 76, 117, 116
75, 76, 77, 118, 117
76, 77, 78, 119, 118
77, 78, 79, 120, 119
78, 79, 80, 121, 120
79, 80, 81, 122, 121
80, 81, 82, 123, 122
81, 83, 84, 125, 124
82, 84, 85, 126, 125
83, 85, 86, 127, 126
84, 86, 87, 128, 127
85, 87, 88, 129, 128
86, 88, 89, 130, 129
87, 89, 90, 131, 130
88, 90, 91, 132, 131
89, 91, 92, 133, 132
90, 92, 93, 134, 133
91, 93, 94, 135, 134
92, 94, 95, 136, 135
93, 95, 96, 137, 136
94, 96, 97, 138, 137
95, 97, 98, 139, 138
96, 98, 99, 140, 139
97, 99, 100, 141, 140
98, 100, 101, 142, 141
99, 101, 102, 143, 142
100, 102, 103, 144, 143
101, 103, 104, 145, 144
102, 104, 105, 146, 145
103, 105, 106, 147, 146
104, 106, 107, 148, 147
105, 107, 108, 149, 148
106, 108, 109, 150, 149
107, 109, 110, 151, 150
108, 110, 111, 152, 151
109, 111, 112, 153, 152
110, 112, 113, 154, 153
111, 113, 114, 155, 154
112, 114, 115, 156, 155
113, 115, 116, 157, 156
114, 116, 117, 158, 157
115, 117, 118, 159, 158
116, 118, 119, 160, 159
117, 119, 120, 161, 160
118, 120, 121, 162, 161
119, 121, 122, 163, 162
120, 122, 123, 164, 163
121, 124, 125, 166, 165
122, 125, 126, 167, 166
123, 126, 127, 168, 167
124, 127, 128, 169, 168
125, 128, 129, 170, 169
126, 129, 130, 171, 170
127, 130, 131, 172, 171
128, 131, 132, 173, 172
129, 132, 133, 174, 173
130, 133, 134, 175, 174
131, 134, 135, 176, 175
132, 135, 136, 177, 176
133, 136, 137, 178, 177
134, 137, 138, 179, 178
135, 138, 139, 180, 179
136, 139, 140, 181, 180
137, 140, 141, 182, 181
138, 141, 142, 183, 182
139, 142, 143, 184, 183
140, 143, 144, 185, 184
141, 144, 145, 186, 185
142, 145, 146, 187, 186
143, 146, 147, 188, 187
144, 147, 148, 189, 188
145, 148, 149, 190, 189
146, 149, 150, 191, 190
147, 150, 151, 192, 191
148, 151, 152, 193, 192
149, 152, 153, 194, 193
150, 153, 154, 195, 194
151, 154, 155, 196, 195
152, 155, 156, 197, 196
153, 156, 157, 198, 197
154, 157, 158, 199, 198
155, 158, 159, 200, 199
156, 159, 160, 201, 200
157, 160, 161, 202, 201
158, 161, 162, 203, 202
159, 162, 163, 204, 203
160, 163, 164, 205, 204
161, 165, 166, 207, 206
162, 166, 167, 208, 207
163, 167, 168, 209, 208
164, 168, 169, 210, 209
165, 169, 170, 211, 210
166, 170, 171, 212, 211
167, 171, 172, 213, 212
168, 172, 173, 214, 213
169, 173, 174, 215, 214
170, 174, 175, 216, 215
171, 175, 176, 217, 216
172, 176, 177, 218, 217
173, 177, 178, 219, 218
174, 178, 179, 220, 219
175, 179, 180, 221, 220
176, 180, 181, 222, 221
177, 181, 182, 223, 222
178, 182, 183, 224, 223
179, 183, 184, 225, 224
180, 184, 185, 226, 225
181, 185, 186, 227, 226
182, 186, 187, 228, 227
183, 187, 188, 229, 228
184, 188, 189, 230, 229
185, 189, 190, 231, 230
186, 190, 191, 232, 231
187, 191, 192, 233, 232
188, 192, 193, 234, 233
189, 193, 194, 235, 234
190, 194, 195, 236, 235
191, 195, 196, 237, 236
192, 196, 197, 238, 237
193, 197, 198, 239, 238
194, 198, 199, 240, 239
195, 199, 200, 241, 240
196, 200, 201, 242, 241
197, 201, 202, 243, 242
198, 202, 203, 244, 243
199, 203, 204, 245, 244
200, 204, 205, 246, 245
201, 206, 207, 248, 247
202, 207, 208, 249, 248
203, 208, 209, 250, 249
204, 209, 210, 251, 250
205, 210, 211, 252, 251
206, 211, 212, 253, 252
207, 212, 213, 254, 253
208, 213, 214, 255, 254
209, 214, 215, 256, 255
210, 215, 216, 257, 256
211, 216, 217, 258, 257
212, 217, 218, 259, 258
213, 218, 219, 260, 259
214, 219, 220, 261, 260
215, 220, 221, 262, 261
216, 221, 222, 263, 262
217, 222, 223, 264, 263
218, 223, 224, 265, 264
219, 224, 225, 266, 265
220, 225, 226, 267, 266
221, 226, 227, 268, 267
222, 227, 228, 269, 268
223, 228, 229, 270, 269
224, 229, 230, 271, 270
225, 230, 231, 272, 271
226, 231, 232, 273, 272
227, 232, 233, 274, 273
228, 233, 234, 275, 274
229, 234, 235, 276, 275
230, 235, 236, 277, 276
231, 236, 237, 278, 277
232, 237, 238, 279, 278
233, 238, 239, 280, 279
234, 239, 240, 281, 280
235, 240, 241, 282, 281
236, 241, 242, 283, 282
237, 242, 243, 284, 283
238, 243, 244, 285, 284
239, 244, 245, 286, 285
240, 245, 246, 287, 286
241, 247, 248, 289, 288
242, 248, 249, 290, 289
243, 249, 250, 291, 290
244, 250, 251, 292, 291
245, 251, 252, 293, 292
246, 252, 253, 294, 293
247, 253, 254, 295, 294
248, 254, 255, 296, 295
249, 255, 256, 297, 296
250, 256, 257, 298, 297
251, 257, 258, 299, 298
252, 258, 259, 300, 299
253, 259, 260, 301, 300
254, 260, 261, 302, 301
255, 261, 262, 303, 302
256, 262, 263, 304, 303
257, 263, 264, 305, 304
258, 264, 265, 306, 305
259, 265, 266, 307, 306
260, 266, 267, 308, 307
261, 267, 268, 309, 308
262, 268, 269, 310, 309
263, 269, 270, 311, 310
264, 270, 271, 312, 311
265, 271, 272, 313, 312
266, 272, 273, 314, 313
267, 273, 274, 315, 314
268, 274, 275, 316, 315
269, 275, 276, 317, 316
270, 276, 277, 318, 317
271, 277, 278, 319, 318
272, 278, 279, 320, 319
273, 279, 280, 321, 320
274, 280, 281, 322, 321
275, 281, 282, 323, 322
276, 282, 283, 324, 323
277, 283, 284, 325, 324
278, 284, 285, 326, 325
279, 285, 286, 327, 326
280, 286, 287, 328, 327
281, 288, 289, 330, 329
282, 289, 290, 331, 330
283, 290, 291, 332, 331
284, 291, 292, 333, 332
285, 292, 293, 334, 333
286, 293, 294, 335, 334
287, 294, 295, 336, 335
288, 295, 296, 337, 336
289, 296, 297, 338, 337
290, 297, 298, 339, 338
291, 298, 299, 340, 339
292, 299, 300, 341, 340
293, 300, 301, 342, 341
294, 301, 302, 343, 342
295, 302, 303, 344, 343
296, 303, 304, 345, 344
297, 304, 305, 346, 345
298, 305, 306, 347, 346
299, 306, 307, 348, 347
300, 307, 308, 349, 348
301, 308, 309, 350, 349
302, 309, 310, 351, 350
303, 310, 311, 352, 351
304, 311, 312, 353, 352
305, 312, 313, 354, 353
306, 313, 314, 355, 354
307, 314, 315, 356, 355
308, 315, 316, 357, 356
309, 316, 317, 358, 357
310, 317, 318, 359, 358
311, 318, 319, 360, 359
312, 319, 320, 361, 360
313, 320, 321, 362, 361
314, 321, 322, 363, 362
315, 322, 323, 364, 363
316, 323, 324, 365, 364
317, 324, 325, 366, 365
318, 325, 326, 367, 366
319, 326, 327, 368, 367
320, 327, 328, 369, 368
321, 329, 330, 371, 370
322, 330, 331, 372, 371
323, 331, 332, 373, 372
324, 332, 333, 374, 373
325, 333, 334, 375, 374
326, 334, 335, 376, 375
327, 335, 336, 377, 376
328, 336, 337, 378, 377
329, 337, 338, 379, 378
330, 338, 339, 380, 379
331, 339, 340, 381, 380
332, 340, 341, 382, 381
333, 341, 342, 383, 382
334, 342, 343, 384, 383
335, 343, 344, 385, 384
336, 344, 345, 386, 385
337, 345, 346, 387, 386
338, 346, 347, 388, 387
339, 347, 348, 389, 388
340, 348, 349, 390, 389
341, 349, 350, 391, 390
342, 350, 351, 392, 391
343, 351, 352, 393, 392
344, 352, 353, 394, 393
345, 353, 354, 395, 394
346, 354, 355, 396, 395
347, 355, 356, 397, 396
348, 356, 357, 398, 397
349, 357, 358, 399, 398
350, 358, 359, 400, 399
351, 359, 360, 401, 400
352, 360, 361, 402, 401
353, 361, 362, 403, 402
354, 362, 363, 404, 403
355, 363, 364, 405, 404
356, 364, 365, 406, 405
357, 365, 366, 407, 406
358, 366, 367, 408, 407
359, 367, 368, 409, 408
360, 368, 369, 410, 409
361, 370, 371, 412, 411
362, 371, 372, 413, 412
363, 372, 373, 414, 413
364, 373, 374, 415, 414
365, 374, 375, 416, 415
366, 375, 376, 417, 416
367, 376, 377, 418, 417
368, 377, 378, 419, 418
369, 378, 379, 420, 419
370, 379, 380, 421, 420
371, 380, 381, 422, 421
372, 381, 382, 423, 422
373, 382, 383, 424, 423
374, 383, 384, 425, 424
375, 384, 385, 426, 425
376, 385, 386, 427, 426
377, 386, 387, 428, 427
378, 387, 388, 429, 428
379, 388, 389, 430, 429
380, 389, 390, 431, 430
381, 390, 391, 432, 431
382, 391, 392, 433, 432
383, 392, 393, 434, 433
384, 393, 394, 435, 434
385, 394, 395, 436, 435
386, 395, 396, 437, 436
387, 396, 397, 438, 437
388, 397, 398, 439, 438
389, 398, 399, 440, 439
390, 399, 400, 441, 440
391, 400, 401, 442, 441
392, 401, 402, 443, 442
393, 402, 403, 444, 443
394, 403, 404, 445, 444
395, 404, 405, 446, 445
396, 405, 406, 447, 446
397, 406, 407, 448, 447
398, 407, 408, 449, 448
399, 408, 409, 450, 449
400, 409, 410, 451, 450
**
** Node sets +++++++++++++++++++++++++++++++++++++++++++++++
**
*Nset, Nset=roller_support
1
*Nset, Nset=fixed_support
41
*Nset, Nset=Internal_Selection-1_Concentrated_Force-1
1
*Nset, Nset=Internal_Selection-1_Displacement_Rotation-1
41
*Nset, Nset=Internal_Selection-1_YSymm
1, 42, 83, 124, 165, 206, 247, 288, 329, 370, 411
**
** Element sets ++++++++++++++++++++++++++++++++++++++++++++
**
*Elset, Elset=EALL
1, 2, 3, 4, 5, 6, 7, 8, 9, 10, 11, 12, 13, 14, 15, 16, 
17, 18, 19, 20, 21, 22, 23, 24, 25, 26, 27, 28, 29, 30, 31, 32, 
33, 34, 35, 36, 37, 38, 39, 40, 41, 42, 43, 44, 45, 46, 47, 48, 
49, 50, 51, 52, 53, 54, 55, 56, 57, 58, 59, 60, 61, 62, 63, 64, 
65, 66, 67, 68, 69, 70, 71, 72, 73, 74, 75, 76, 77, 78, 79, 80, 
81, 82, 83, 84, 85, 86, 87, 88, 89, 90, 91, 92, 93, 94, 95, 96, 
97, 98, 99, 100, 101, 102, 103, 104, 105, 106, 107, 108, 109, 110, 111, 112, 
113, 114, 115, 116, 117, 118, 119, 120, 121, 122, 123, 124, 125, 126, 127, 128, 
129, 130, 131, 132, 133, 134, 135, 136, 137, 138, 139, 140, 141, 142, 143, 144, 
145, 146, 147, 148, 149, 150, 151, 152, 153, 154, 155, 156, 157, 158, 159, 160, 
161, 162, 163, 164, 165, 166, 167, 168, 169, 170, 171, 172, 173, 174, 175, 176, 
177, 178, 179, 180, 181, 182, 183, 184, 185, 186, 187, 188, 189, 190, 191, 192, 
193, 194, 195, 196, 197, 198, 199, 200, 201, 202, 203, 204, 205, 206, 207, 208, 
209, 210, 211, 212, 213, 214, 215, 216, 217, 218, 219, 220, 221, 222, 223, 224, 
225, 226, 227, 228, 229, 230, 231, 232, 233, 234, 235, 236, 237, 238, 239, 240, 
241, 242, 243, 244, 245, 246, 247, 248, 249, 250, 251, 252, 253, 254, 255, 256, 
257, 258, 259, 260, 261, 262, 263, 264, 265, 266, 267, 268, 269, 270, 271, 272, 
273, 274, 275, 276, 277, 278, 279, 280, 281, 282, 283, 284, 285, 286, 287, 288, 
289, 290, 291, 292, 293, 294, 295, 296, 297, 298, 299, 300, 301, 302, 303, 304, 
305, 306, 307, 308, 309, 310, 311, 312, 313, 314, 315, 316, 317, 318, 319, 320, 
321, 322, 323, 324, 325, 326, 327, 328, 329, 330, 331, 332, 333, 334, 335, 336, 
337, 338, 339, 340, 341, 342, 343, 344, 345, 346, 347, 348, 349, 350, 351, 352, 
353, 354, 355, 356, 357, 358, 359, 360, 361, 362, 363, 364, 365, 366, 367, 368, 
369, 370, 371, 372, 373, 374, 375, 376, 377, 378, 379, 380, 381, 382, 383, 384, 
385, 386, 387, 388, 389, 390, 391, 392, 393, 394, 395, 396, 397, 398, 399, 400
*Elset, Elset=Internal_Selection-1_Solid_Section-1
Shell_part-1
**
** Surfaces ++++++++++++++++++++++++++++++++++++++++++++++++
**
**
** Physical constants ++++++++++++++++++++++++++++++++++++++
**
**
** Materials +++++++++++++++++++++++++++++++++++++++++++++++
**
*Material, Name=Steel
*Elastic
42000, 0.2
**
** Sections ++++++++++++++++++++++++++++++++++++++++++++++++
**
*Solid section, Elset=Internal_Selection-1_Solid_Section-1, Material=Steel
1
**
** Pre-tension sections ++++++++++++++++++++++++++++++++++++
**
**
** Constraints +++++++++++++++++++++++++++++++++++++++++++++
**
**
** Surface interactions ++++++++++++++++++++++++++++++++++++
**
**
** Contact pairs +++++++++++++++++++++++++++++++++++++++++++
**
**
** Amplitudes ++++++++++++++++++++++++++++++++++++++++++++++
**
**
** Initial conditions ++++++++++++++++++++++++++++++++++++++
**
**
** Steps +++++++++++++++++++++++++++++++++++++++++++++++++++
**
**
** Step-1 ++++++++++++++++++++++++++++++++++++++++++++++++++
**
*Step
*Static
**
** Output frequency ++++++++++++++++++++++++++++++++++++++++
**
*Output, Frequency=1
**
** Boundary conditions +++++++++++++++++++++++++++++++++++++
**
*Boundary, op=New
** Name: Displacement_Rotation-1
*Boundary, Fixed
Internal_Selection-1_Displacement_Rotation-1, 2, 2
** Name: YSymm
*Boundary, Fixed
Internal_Selection-1_YSymm, 1, 1
**
** Loads +++++++++++++++++++++++++++++++++++++++++++++++++++
**
** Name: Concentrated_Force-1
*Cload
1, 2, -50
**
** Defined fields ++++++++++++++++++++++++++++++++++++++++++
**
**
** History outputs +++++++++++++++++++++++++++++++++++++++++
**
**
** Field outputs +++++++++++++++++++++++++++++++++++++++++++
**
*Node file
RF, U
*El file
S, E, NOE
**
** End step ++++++++++++++++++++++++++++++++++++++++++++++++
**
*End step
