*Heading
Model: Model-1,     Date: 04/29/2025
*Part, name=Part-1
*End Part
*Assembly, name=Assembly
*Instance, name=Part-1-1, part=Part-1
         0.0,          0.0,           0.
*Node
2, 0, 0, 0
3, 5, 0, 0
4, 10, 0, 0
5, 15, 0, 0
6, 20, 0, 0
7, 25, 0, 0
8, 30, 0, 0
9, 35, 0, 0
10, 40, 0, 0
11, 45, 0, 0
12, 50, 0, 0
13, 55, 0, 0
14, 60, 0, 0
15, 65, 0, 0
16, 70, 0, 0
17, 75, 0, 0
18, 80, 0, 0
19, 85, 0, 0
20, 90, 0, 0
21, 95, 0, 0
22, 100, 0, 0
23, 105, 0, 0
24, 110, 0, 0
25, 115, 0, 0
26, 120, 0, 0
27, 125, 0, 0
28, 130, 0, 0
29, 135, 0, 0
30, 140, 0, 0
31, 145, 0, 0
32, 150, 0, 0
33, 155, 0, 0
34, 160, 0, 0
35, 165, 0, 0
36, 170, 0, 0
37, 175, 0, 0
38, 180, 0, 0
39, 185, 0, 0
40, 190, 0, 0
41, 195, 0, 0
42, 200, 0, 0
43, 0, 5, 0
44, 5, 5, 0
45, 10, 5, 0
46, 15, 5, 0
47, 20, 5, 0
48, 25, 5, 0
49, 30, 5, 0
50, 35, 5, 0
51, 40, 5, 0
52, 45, 5, 0
53, 50, 5, 0
54, 55, 5, 0
55, 60, 5, 0
56, 65, 5, 0
57, 70, 5, 0
58, 75, 5, 0
59, 80, 5, 0
60, 85, 5, 0
61, 90, 5, 0
62, 95, 5, 0
63, 100, 5, 0
64, 105, 5, 0
65, 110, 5, 0
66, 115, 5, 0
67, 120, 5, 0
68, 125, 5, 0
69, 130, 5, 0
70, 135, 5, 0
71, 140, 5, 0
72, 145, 5, 0
73, 150, 5, 0
74, 155, 5, 0
75, 160, 5, 0
76, 165, 5, 0
77, 170, 5, 0
78, 175, 5, 0
79, 180, 5, 0
80, 185, 5, 0
81, 190, 5, 0
82, 195, 5, 0
83, 200, 5, 0
84, 0, 10, 0
85, 5, 10, 0
86, 10, 10, 0
87, 15, 10, 0
88, 20, 10, 0
89, 25, 10, 0
90, 30, 10, 0
91, 35, 10, 0
92, 40, 10, 0
93, 45, 10, 0
94, 50, 10, 0
95, 55, 10, 0
96, 60, 10, 0
97, 65, 10, 0
98, 70, 10, 0
99, 75, 10, 0
100, 80, 10, 0
101, 85, 10, 0
102, 90, 10, 0
103, 95, 10, 0
104, 100, 10, 0
105, 105, 10, 0
106, 110, 10, 0
107, 115, 10, 0
108, 120, 10, 0
109, 125, 10, 0
110, 130, 10, 0
111, 135, 10, 0
112, 140, 10, 0
113, 145, 10, 0
114, 150, 10, 0
115, 155, 10, 0
116, 160, 10, 0
117, 165, 10, 0
118, 170, 10, 0
119, 175, 10, 0
120, 180, 10, 0
121, 185, 10, 0
122, 190, 10, 0
123, 195, 10, 0
124, 200, 10, 0
125, 0, 15, 0
126, 5, 15, 0
127, 10, 15, 0
128, 15, 15, 0
129, 20, 15, 0
130, 25, 15, 0
131, 30, 15, 0
132, 35, 15, 0
133, 40, 15, 0
134, 45, 15, 0
135, 50, 15, 0
136, 55, 15, 0
137, 60, 15, 0
138, 65, 15, 0
139, 70, 15, 0
140, 75, 15, 0
141, 80, 15, 0
142, 85, 15, 0
143, 90, 15, 0
144, 95, 15, 0
145, 100, 15, 0
146, 105, 15, 0
147, 110, 15, 0
148, 115, 15, 0
149, 120, 15, 0
150, 125, 15, 0
151, 130, 15, 0
152, 135, 15, 0
153, 140, 15, 0
154, 145, 15, 0
155, 150, 15, 0
156, 155, 15, 0
157, 160, 15, 0
158, 165, 15, 0
159, 170, 15, 0
160, 175, 15, 0
161, 180, 15, 0
162, 185, 15, 0
163, 190, 15, 0
164, 195, 15, 0
165, 200, 15, 0
166, 0, 20, 0
167, 5, 20, 0
168, 10, 20, 0
169, 15, 20, 0
170, 20, 20, 0
171, 25, 20, 0
172, 30, 20, 0
173, 35, 20, 0
174, 40, 20, 0
175, 45, 20, 0
176, 50, 20, 0
177, 55, 20, 0
178, 60, 20, 0
179, 65, 20, 0
180, 70, 20, 0
181, 75, 20, 0
182, 80, 20, 0
183, 85, 20, 0
184, 90, 20, 0
185, 95, 20, 0
186, 100, 20, 0
187, 105, 20, 0
188, 110, 20, 0
189, 115, 20, 0
190, 120, 20, 0
191, 125, 20, 0
192, 130, 20, 0
193, 135, 20, 0
194, 140, 20, 0
195, 145, 20, 0
196, 150, 20, 0
197, 155, 20, 0
198, 160, 20, 0
199, 165, 20, 0
200, 170, 20, 0
201, 175, 20, 0
202, 180, 20, 0
203, 185, 20, 0
204, 190, 20, 0
205, 195, 20, 0
206, 200, 20, 0
207, 0, 25, 0
208, 5, 25, 0
209, 10, 25, 0
210, 15, 25, 0
211, 20, 25, 0
212, 25, 25, 0
213, 30, 25, 0
214, 35, 25, 0
215, 40, 25, 0
216, 45, 25, 0
217, 50, 25, 0
218, 55, 25, 0
219, 60, 25, 0
220, 65, 25, 0
221, 70, 25, 0
222, 75, 25, 0
223, 80, 25, 0
224, 85, 25, 0
225, 90, 25, 0
226, 95, 25, 0
227, 100, 25, 0
228, 105, 25, 0
229, 110, 25, 0
230, 115, 25, 0
231, 120, 25, 0
232, 125, 25, 0
233, 130, 25, 0
234, 135, 25, 0
235, 140, 25, 0
236, 145, 25, 0
237, 150, 25, 0
238, 155, 25, 0
239, 160, 25, 0
240, 165, 25, 0
241, 170, 25, 0
242, 175, 25, 0
243, 180, 25, 0
244, 185, 25, 0
245, 190, 25, 0
246, 195, 25, 0
247, 200, 25, 0
248, 0, 30, 0
249, 5, 30, 0
250, 10, 30, 0
251, 15, 30, 0
252, 20, 30, 0
253, 25, 30, 0
254, 30, 30, 0
255, 35, 30, 0
256, 40, 30, 0
257, 45, 30, 0
258, 50, 30, 0
259, 55, 30, 0
260, 60, 30, 0
261, 65, 30, 0
262, 70, 30, 0
263, 75, 30, 0
264, 80, 30, 0
265, 85, 30, 0
266, 90, 30, 0
267, 95, 30, 0
268, 100, 30, 0
269, 105, 30, 0
270, 110, 30, 0
271, 115, 30, 0
272, 120, 30, 0
273, 125, 30, 0
274, 130, 30, 0
275, 135, 30, 0
276, 140, 30, 0
277, 145, 30, 0
278, 150, 30, 0
279, 155, 30, 0
280, 160, 30, 0
281, 165, 30, 0
282, 170, 30, 0
283, 175, 30, 0
284, 180, 30, 0
285, 185, 30, 0
286, 190, 30, 0
287, 195, 30, 0
288, 200, 30, 0
289, 0, 35, 0
290, 5, 35, 0
291, 10, 35, 0
292, 15, 35, 0
293, 20, 35, 0
294, 25, 35, 0
295, 30, 35, 0
296, 35, 35, 0
297, 40, 35, 0
298, 45, 35, 0
299, 50, 35, 0
300, 55, 35, 0
301, 60, 35, 0
302, 65, 35, 0
303, 70, 35, 0
304, 75, 35, 0
305, 80, 35, 0
306, 85, 35, 0
307, 90, 35, 0
308, 95, 35, 0
309, 100, 35, 0
310, 105, 35, 0
311, 110, 35, 0
312, 115, 35, 0
313, 120, 35, 0
314, 125, 35, 0
315, 130, 35, 0
316, 135, 35, 0
317, 140, 35, 0
318, 145, 35, 0
319, 150, 35, 0
320, 155, 35, 0
321, 160, 35, 0
322, 165, 35, 0
323, 170, 35, 0
324, 175, 35, 0
325, 180, 35, 0
326, 185, 35, 0
327, 190, 35, 0
328, 195, 35, 0
329, 200, 35, 0
330, 0, 40, 0
331, 5, 40, 0
332, 10, 40, 0
333, 15, 40, 0
334, 20, 40, 0
335, 25, 40, 0
336, 30, 40, 0
337, 35, 40, 0
338, 40, 40, 0
339, 45, 40, 0
340, 50, 40, 0
341, 55, 40, 0
342, 60, 40, 0
343, 65, 40, 0
344, 70, 40, 0
345, 75, 40, 0
346, 80, 40, 0
347, 85, 40, 0
348, 90, 40, 0
349, 95, 40, 0
350, 100, 40, 0
351, 105, 40, 0
352, 110, 40, 0
353, 115, 40, 0
354, 120, 40, 0
355, 125, 40, 0
356, 130, 40, 0
357, 135, 40, 0
358, 140, 40, 0
359, 145, 40, 0
360, 150, 40, 0
361, 155, 40, 0
362, 160, 40, 0
363, 165, 40, 0
364, 170, 40, 0
365, 175, 40, 0
366, 180, 40, 0
367, 185, 40, 0
368, 190, 40, 0
369, 195, 40, 0
370, 200, 40, 0
371, 0, 45, 0
372, 5, 45, 0
373, 10, 45, 0
374, 15, 45, 0
375, 20, 45, 0
376, 25, 45, 0
377, 30, 45, 0
378, 35, 45, 0
379, 40, 45, 0
380, 45, 45, 0
381, 50, 45, 0
382, 55, 45, 0
383, 60, 45, 0
384, 65, 45, 0
385, 70, 45, 0
386, 75, 45, 0
387, 80, 45, 0
388, 85, 45, 0
389, 90, 45, 0
390, 95, 45, 0
391, 100, 45, 0
392, 105, 45, 0
393, 110, 45, 0
394, 115, 45, 0
395, 120, 45, 0
396, 125, 45, 0
397, 130, 45, 0
398, 135, 45, 0
399, 140, 45, 0
400, 145, 45, 0
401, 150, 45, 0
402, 155, 45, 0
403, 160, 45, 0
404, 165, 45, 0
405, 170, 45, 0
406, 175, 45, 0
407, 180, 45, 0
408, 185, 45, 0
409, 190, 45, 0
410, 195, 45, 0
411, 200, 45, 0
412, 0, 50, 0
413, 5, 50, 0
414, 10, 50, 0
415, 15, 50, 0
416, 20, 50, 0
417, 25, 50, 0
418, 30, 50, 0
419, 35, 50, 0
420, 40, 50, 0
421, 45, 50, 0
422, 50, 50, 0
423, 55, 50, 0
424, 60, 50, 0
425, 65, 50, 0
426, 70, 50, 0
427, 75, 50, 0
428, 80, 50, 0
429, 85, 50, 0
430, 90, 50, 0
431, 95, 50, 0
432, 100, 50, 0
433, 105, 50, 0
434, 110, 50, 0
435, 115, 50, 0
436, 120, 50, 0
437, 125, 50, 0
438, 130, 50, 0
439, 135, 50, 0
440, 140, 50, 0
441, 145, 50, 0
442, 150, 50, 0
443, 155, 50, 0
444, 160, 50, 0
445, 165, 50, 0
446, 170, 50, 0
447, 175, 50, 0
448, 180, 50, 0
449, 185, 50, 0
450, 190, 50, 0
451, 195, 50, 0
452, 200, 50, 0
*ELEMENT, TYPE=S4
2, 2, 3, 44, 43
3, 3, 4, 45, 44
4, 4, 5, 46, 45
5, 5, 6, 47, 46
6, 6, 7, 48, 47
7, 7, 8, 49, 48
8, 8, 9, 50, 49
9, 9, 10, 51, 50
10, 10, 11, 52, 51
11, 11, 12, 53, 52
12, 12, 13, 54, 53
13, 13, 14, 55, 54
14, 14, 15, 56, 55
15, 15, 16, 57, 56
16, 16, 17, 58, 57
17, 17, 18, 59, 58
18, 18, 19, 60, 59
19, 19, 20, 61, 60
20, 20, 21, 62, 61
21, 21, 22, 63, 62
22, 22, 23, 64, 63
23, 23, 24, 65, 64
24, 24, 25, 66, 65
25, 25, 26, 67, 66
26, 26, 27, 68, 67
27, 27, 28, 69, 68
28, 28, 29, 70, 69
29, 29, 30, 71, 70
30, 30, 31, 72, 71
31, 31, 32, 73, 72
32, 32, 33, 74, 73
33, 33, 34, 75, 74
34, 34, 35, 76, 75
35, 35, 36, 77, 76
36, 36, 37, 78, 77
37, 37, 38, 79, 78
38, 38, 39, 80, 79
39, 39, 40, 81, 80
40, 40, 41, 82, 81
41, 41, 42, 83, 82
42, 43, 44, 85, 84
43, 44, 45, 86, 85
44, 45, 46, 87, 86
45, 46, 47, 88, 87
46, 47, 48, 89, 88
47, 48, 49, 90, 89
48, 49, 50, 91, 90
49, 50, 51, 92, 91
50, 51, 52, 93, 92
51, 52, 53, 94, 93
52, 53, 54, 95, 94
53, 54, 55, 96, 95
54, 55, 56, 97, 96
55, 56, 57, 98, 97
56, 57, 58, 99, 98
57, 58, 59, 100, 99
58, 59, 60, 101, 100
59, 60, 61, 102, 101
60, 61, 62, 103, 102
61, 62, 63, 104, 103
62, 63, 64, 105, 104
63, 64, 65, 106, 105
64, 65, 66, 107, 106
65, 66, 67, 108, 107
66, 67, 68, 109, 108
67, 68, 69, 110, 109
68, 69, 70, 111, 110
69, 70, 71, 112, 111
70, 71, 72, 113, 112
71, 72, 73, 114, 113
72, 73, 74, 115, 114
73, 74, 75, 116, 115
74, 75, 76, 117, 116
75, 76, 77, 118, 117
76, 77, 78, 119, 118
77, 78, 79, 120, 119
78, 79, 80, 121, 120
79, 80, 81, 122, 121
80, 81, 82, 123, 122
81, 82, 83, 124, 123
82, 84, 85, 126, 125
83, 85, 86, 127, 126
84, 86, 87, 128, 127
85, 87, 88, 129, 128
86, 88, 89, 130, 129
87, 89, 90, 131, 130
88, 90, 91, 132, 131
89, 91, 92, 133, 132
90, 92, 93, 134, 133
91, 93, 94, 135, 134
92, 94, 95, 136, 135
93, 95, 96, 137, 136
94, 96, 97, 138, 137
95, 97, 98, 139, 138
96, 98, 99, 140, 139
97, 99, 100, 141, 140
98, 100, 101, 142, 141
99, 101, 102, 143, 142
100, 102, 103, 144, 143
101, 103, 104, 145, 144
102, 104, 105, 146, 145
103, 105, 106, 147, 146
104, 106, 107, 148, 147
105, 107, 108, 149, 148
106, 108, 109, 150, 149
107, 109, 110, 151, 150
108, 110, 111, 152, 151
109, 111, 112, 153, 152
110, 112, 113, 154, 153
111, 113, 114, 155, 154
112, 114, 115, 156, 155
113, 115, 116, 157, 156
114, 116, 117, 158, 157
115, 117, 118, 159, 158
116, 118, 119, 160, 159
117, 119, 120, 161, 160
118, 120, 121, 162, 161
119, 121, 122, 163, 162
120, 122, 123, 164, 163
121, 123, 124, 165, 164
122, 125, 126, 167, 166
123, 126, 127, 168, 167
124, 127, 128, 169, 168
125, 128, 129, 170, 169
126, 129, 130, 171, 170
127, 130, 131, 172, 171
128, 131, 132, 173, 172
129, 132, 133, 174, 173
130, 133, 134, 175, 174
131, 134, 135, 176, 175
132, 135, 136, 177, 176
133, 136, 137, 178, 177
134, 137, 138, 179, 178
135, 138, 139, 180, 179
136, 139, 140, 181, 180
137, 140, 141, 182, 181
138, 141, 142, 183, 182
139, 142, 143, 184, 183
140, 143, 144, 185, 184
141, 144, 145, 186, 185
142, 145, 146, 187, 186
143, 146, 147, 188, 187
144, 147, 148, 189, 188
145, 148, 149, 190, 189
146, 149, 150, 191, 190
147, 150, 151, 192, 191
148, 151, 152, 193, 192
149, 152, 153, 194, 193
150, 153, 154, 195, 194
151, 154, 155, 196, 195
152, 155, 156, 197, 196
153, 156, 157, 198, 197
154, 157, 158, 199, 198
155, 158, 159, 200, 199
156, 159, 160, 201, 200
157, 160, 161, 202, 201
158, 161, 162, 203, 202
159, 162, 163, 204, 203
160, 163, 164, 205, 204
161, 164, 165, 206, 205
162, 166, 167, 208, 207
163, 167, 168, 209, 208
164, 168, 169, 210, 209
165, 169, 170, 211, 210
166, 170, 171, 212, 211
167, 171, 172, 213, 212
168, 172, 173, 214, 213
169, 173, 174, 215, 214
170, 174, 175, 216, 215
171, 175, 176, 217, 216
172, 176, 177, 218, 217
173, 177, 178, 219, 218
174, 178, 179, 220, 219
175, 179, 180, 221, 220
176, 180, 181, 222, 221
177, 181, 182, 223, 222
178, 182, 183, 224, 223
179, 183, 184, 225, 224
180, 184, 185, 226, 225
181, 185, 186, 227, 226
182, 186, 187, 228, 227
183, 187, 188, 229, 228
184, 188, 189, 230, 229
185, 189, 190, 231, 230
186, 190, 191, 232, 231
187, 191, 192, 233, 232
188, 192, 193, 234, 233
189, 193, 194, 235, 234
190, 194, 195, 236, 235
191, 195, 196, 237, 236
192, 196, 197, 238, 237
193, 197, 198, 239, 238
194, 198, 199, 240, 239
195, 199, 200, 241, 240
196, 200, 201, 242, 241
197, 201, 202, 243, 242
198, 202, 203, 244, 243
199, 203, 204, 245, 244
200, 204, 205, 246, 245
201, 205, 206, 247, 246
202, 207, 208, 249, 248
203, 208, 209, 250, 249
204, 209, 210, 251, 250
205, 210, 211, 252, 251
206, 211, 212, 253, 252
207, 212, 213, 254, 253
208, 213, 214, 255, 254
209, 214, 215, 256, 255
210, 215, 216, 257, 256
211, 216, 217, 258, 257
212, 217, 218, 259, 258
213, 218, 219, 260, 259
214, 219, 220, 261, 260
215, 220, 221, 262, 261
216, 221, 222, 263, 262
217, 222, 223, 264, 263
218, 223, 224, 265, 264
219, 224, 225, 266, 265
220, 225, 226, 267, 266
221, 226, 227, 268, 267
222, 227, 228, 269, 268
223, 228, 229, 270, 269
224, 229, 230, 271, 270
225, 230, 231, 272, 271
226, 231, 232, 273, 272
227, 232, 233, 274, 273
228, 233, 234, 275, 274
229, 234, 235, 276, 275
230, 235, 236, 277, 276
231, 236, 237, 278, 277
232, 237, 238, 279, 278
233, 238, 239, 280, 279
234, 239, 240, 281, 280
235, 240, 241, 282, 281
236, 241, 242, 283, 282
237, 242, 243, 284, 283
238, 243, 244, 285, 284
239, 244, 245, 286, 285
240, 245, 246, 287, 286
241, 246, 247, 288, 287
242, 248, 249, 290, 289
243, 249, 250, 291, 290
244, 250, 251, 292, 291
245, 251, 252, 293, 292
246, 252, 253, 294, 293
247, 253, 254, 295, 294
248, 254, 255, 296, 295
249, 255, 256, 297, 296
250, 256, 257, 298, 297
251, 257, 258, 299, 298
252, 258, 259, 300, 299
253, 259, 260, 301, 300
254, 260, 261, 302, 301
255, 261, 262, 303, 302
256, 262, 263, 304, 303
257, 263, 264, 305, 304
258, 264, 265, 306, 305
259, 265, 266, 307, 306
260, 266, 267, 308, 307
261, 267, 268, 309, 308
262, 268, 269, 310, 309
263, 269, 270, 311, 310
264, 270, 271, 312, 311
265, 271, 272, 313, 312
266, 272, 273, 314, 313
267, 273, 274, 315, 314
268, 274, 275, 316, 315
269, 275, 276, 317, 316
270, 276, 277, 318, 317
271, 277, 278, 319, 318
272, 278, 279, 320, 319
273, 279, 280, 321, 320
274, 280, 281, 322, 321
275, 281, 282, 323, 322
276, 282, 283, 324, 323
277, 283, 284, 325, 324
278, 284, 285, 326, 325
279, 285, 286, 327, 326
280, 286, 287, 328, 327
281, 287, 288, 329, 328
282, 289, 290, 331, 330
283, 290, 291, 332, 331
284, 291, 292, 333, 332
285, 292, 293, 334, 333
286, 293, 294, 335, 334
287, 294, 295, 336, 335
288, 295, 296, 337, 336
289, 296, 297, 338, 337
290, 297, 298, 339, 338
291, 298, 299, 340, 339
292, 299, 300, 341, 340
293, 300, 301, 342, 341
294, 301, 302, 343, 342
295, 302, 303, 344, 343
296, 303, 304, 345, 344
297, 304, 305, 346, 345
298, 305, 306, 347, 346
299, 306, 307, 348, 347
300, 307, 308, 349, 348
301, 308, 309, 350, 349
302, 309, 310, 351, 350
303, 310, 311, 352, 351
304, 311, 312, 353, 352
305, 312, 313, 354, 353
306, 313, 314, 355, 354
307, 314, 315, 356, 355
308, 315, 316, 357, 356
309, 316, 317, 358, 357
310, 317, 318, 359, 358
311, 318, 319, 360, 359
312, 319, 320, 361, 360
313, 320, 321, 362, 361
314, 321, 322, 363, 362
315, 322, 323, 364, 363
316, 323, 324, 365, 364
317, 324, 325, 366, 365
318, 325, 326, 367, 366
319, 326, 327, 368, 367
320, 327, 328, 369, 368
321, 328, 329, 370, 369
322, 330, 331, 372, 371
323, 331, 332, 373, 372
324, 332, 333, 374, 373
325, 333, 334, 375, 374
326, 334, 335, 376, 375
327, 335, 336, 377, 376
328, 336, 337, 378, 377
329, 337, 338, 379, 378
330, 338, 339, 380, 379
331, 339, 340, 381, 380
332, 340, 341, 382, 381
333, 341, 342, 383, 382
334, 342, 343, 384, 383
335, 343, 344, 385, 384
336, 344, 345, 386, 385
337, 345, 346, 387, 386
338, 346, 347, 388, 387
339, 347, 348, 389, 388
340, 348, 349, 390, 389
341, 349, 350, 391, 390
342, 350, 351, 392, 391
343, 351, 352, 393, 392
344, 352, 353, 394, 393
345, 353, 354, 395, 394
346, 354, 355, 396, 395
347, 355, 356, 397, 396
348, 356, 357, 398, 397
349, 357, 358, 399, 398
350, 358, 359, 400, 399
351, 359, 360, 401, 400
352, 360, 361, 402, 401
353, 361, 362, 403, 402
354, 362, 363, 404, 403
355, 363, 364, 405, 404
356, 364, 365, 406, 405
357, 365, 366, 407, 406
358, 366, 367, 408, 407
359, 367, 368, 409, 408
360, 368, 369, 410, 409
361, 369, 370, 411, 410
362, 371, 372, 413, 412
363, 372, 373, 414, 413
364, 373, 374, 415, 414
365, 374, 375, 416, 415
366, 375, 376, 417, 416
367, 376, 377, 418, 417
368, 377, 378, 419, 418
369, 378, 379, 420, 419
370, 379, 380, 421, 420
371, 380, 381, 422, 421
372, 381, 382, 423, 422
373, 382, 383, 424, 423
374, 383, 384, 425, 424
375, 384, 385, 426, 425
376, 385, 386, 427, 426
377, 386, 387, 428, 427
378, 387, 388, 429, 428
379, 388, 389, 430, 429
380, 389, 390, 431, 430
381, 390, 391, 432, 431
382, 391, 392, 433, 432
383, 392, 393, 434, 433
384, 393, 394, 435, 434
385, 394, 395, 436, 435
386, 395, 396, 437, 436
387, 396, 397, 438, 437
388, 397, 398, 439, 438
389, 398, 399, 440, 439
390, 399, 400, 441, 440
391, 400, 401, 442, 441
392, 401, 402, 443, 442
393, 402, 403, 444, 443
394, 403, 404, 445, 444
395, 404, 405, 446, 445
396, 405, 406, 447, 446
397, 406, 407, 448, 447
398, 407, 408, 449, 448
399, 408, 409, 450, 449
400, 409, 410, 451, 450
401, 410, 411, 452, 451
*Nset, nset=roller_support
2
*Nset, nset=fixed_support
42
*Nset, nset=Internal_Selection-1_Concentrated_Force-1
2
*Nset, nset=Internal_Selection-1_Displacement_Rotation-1
42
*Nset, nset=Internal_Selection-1_YSymm
2, 43, 84, 125, 166, 207, 248, 289, 330, 371, 412
*Elset, elset=EALL
2, 3, 4, 5, 6, 7, 8, 9, 10, 11, 12, 13, 14, 15, 16, 17, 
18, 19, 20, 21, 22, 23, 24, 25, 26, 27, 28, 29, 30, 31, 32, 33, 
34, 35, 36, 37, 38, 39, 40, 41, 42, 43, 44, 45, 46, 47, 48, 49, 
50, 51, 52, 53, 54, 55, 56, 57, 58, 59, 60, 61, 62, 63, 64, 65, 
66, 67, 68, 69, 70, 71, 72, 73, 74, 75, 76, 77, 78, 79, 80, 81, 
82, 83, 84, 85, 86, 87, 88, 89, 90, 91, 92, 93, 94, 95, 96, 97, 
98, 99, 100, 101, 102, 103, 104, 105, 106, 107, 108, 109, 110, 111, 112, 113, 
114, 115, 116, 117, 118, 119, 120, 121, 122, 123, 124, 125, 126, 127, 128, 129, 
130, 131, 132, 133, 134, 135, 136, 137, 138, 139, 140, 141, 142, 143, 144, 145, 
146, 147, 148, 149, 150, 151, 152, 153, 154, 155, 156, 157, 158, 159, 160, 161, 
162, 163, 164, 165, 166, 167, 168, 169, 170, 171, 172, 173, 174, 175, 176, 177, 
178, 179, 180, 181, 182, 183, 184, 185, 186, 187, 188, 189, 190, 191, 192, 193, 
194, 195, 196, 197, 198, 199, 200, 201, 202, 203, 204, 205, 206, 207, 208, 209, 
210, 211, 212, 213, 214, 215, 216, 217, 218, 219, 220, 221, 222, 223, 224, 225, 
226, 227, 228, 229, 230, 231, 232, 233, 234, 235, 236, 237, 238, 239, 240, 241, 
242, 243, 244, 245, 246, 247, 248, 249, 250, 251, 252, 253, 254, 255, 256, 257, 
258, 259, 260, 261, 262, 263, 264, 265, 266, 267, 268, 269, 270, 271, 272, 273, 
274, 275, 276, 277, 278, 279, 280, 281, 282, 283, 284, 285, 286, 287, 288, 289, 
290, 291, 292, 293, 294, 295, 296, 297, 298, 299, 300, 301, 302, 303, 304, 305, 
306, 307, 308, 309, 310, 311, 312, 313, 314, 315, 316, 317, 318, 319, 320, 321, 
322, 323, 324, 325, 326, 327, 328, 329, 330, 331, 332, 333, 334, 335, 336, 337, 
338, 339, 340, 341, 342, 343, 344, 345, 346, 347, 348, 349, 350, 351, 352, 353, 
354, 355, 356, 357, 358, 359, 360, 361, 362, 363, 364, 365, 366, 367, 368, 369, 
370, 371, 372, 373, 374, 375, 376, 377, 378, 379, 380, 381, 382, 383, 384, 385, 
386, 387, 388, 389, 390, 391, 392, 393, 394, 395, 396, 397, 398, 399, 400, 401

*Elset, elset=Internal_Selection-1_Solid_Section-1
2
*Solid section, elset=Internal_Selection-1_Solid_Section-1, material=Steel
CaeGlobals.EquationContainer
*End Instance
*End Assembly
*Material, name=Steel
*Elastic
CaeGlobals.EquationContainer, CaeGlobals.EquationContainer
*Step
*Static
1, 1
*Boundary
PART-1-1.Internal_Selection-1_Displacement_Rotation-1, 2, 2, Infinity
*Boundary
PART-1-1.Internal_Selection-1_YSymm, 1, 1, Infinity
*Cload
PART-1-1.Internal_Selection-1_Concentrated_Force-1, 1, CaeGlobals.EquationContainer
*Node file
RF, U
*El file
S, E
*End step
